<?xml version="1.0" encoding="UTF-8"?><osil xmlns="os.optimizationservices.org"   xmlns:xsi="http://www.w3.org/2001/XMLSchema-instance" xsi:schemaLocation="os.optimizationservices.org http://www.optimizationservices.org/schemas/2.0/OSiL.xsd" ><instanceHeader><name>q_20_0_50_2</name></instanceHeader><instanceData><variables numberOfVariables="20"><var name="x1" ub="1"/><var name="x2" ub="1"/><var name="x3" ub="1"/><var name="x4" ub="1"/><var name="x5" ub="1"/><var name="x6" ub="1"/><var name="x7" ub="1"/><var name="x8" ub="1"/><var name="x9" ub="1"/><var name="x10" ub="1"/><var name="x11" ub="1"/><var name="x12" ub="1"/><var name="x13" ub="1"/><var name="x14" ub="1"/><var name="x15" ub="1"/><var name="x16" ub="1"/><var name="x17" ub="1"/><var name="x18" ub="1"/><var name="x19" ub="1"/><var name="x20" ub="1"/></variables><objectives numberOfObjectives="1"><obj maxOrMin="min" name="defObj_x21" numberOfObjCoef="20"><coef idx="0">-9.75e-2</coef><coef idx="1">.8211</coef><coef idx="2">.6467</coef><coef idx="3">5.4e-2</coef><coef idx="4">1.86e-2</coef><coef idx="5">.3056</coef><coef idx="6">.6154</coef><coef idx="7">7.4e-3</coef><coef idx="8">.4949</coef><coef idx="9">.6723</coef><coef idx="10">.3352</coef><coef idx="11">8.e-4</coef><coef idx="12">.5953</coef><coef idx="13">-.6033</coef><coef idx="14">.5045</coef><coef idx="15">-.269</coef><coef idx="16">.6495</coef><coef idx="17">.8248</coef><coef idx="18">-.6363</coef><coef idx="19">.6394</coef></obj></objectives><quadraticCoefficients  numberOfQuadraticTerms="105" ><qTerm  idx="-1"  idxOne="0"  idxTwo="1"  coef=".7726"/><qTerm  idx="-1"  idxOne="0"  idxTwo="2"  coef="-.3279"/><qTerm  idx="-1"  idxOne="0"  idxTwo="6"  coef="1.6355"/><qTerm  idx="-1"  idxOne="0"  idxTwo="7"  coef="1.3732"/><qTerm  idx="-1"  idxOne="0"  idxTwo="10"  coef="1.8013"/><qTerm  idx="-1"  idxOne="0"  idxTwo="19"  coef="-1.8829"/><qTerm  idx="-1"  idxOne="1"  idxTwo="2"  coef="-.4767"/><qTerm  idx="-1"  idxOne="1"  idxTwo="4"  coef="1.863"/><qTerm  idx="-1"  idxOne="1"  idxTwo="5"  coef="-1.4342"/><qTerm  idx="-1"  idxOne="1"  idxTwo="6"  coef="-1.9387"/><qTerm  idx="-1"  idxOne="1"  idxTwo="8"  coef="-1.007"/><qTerm  idx="-1"  idxOne="1"  idxTwo="9"  coef="1.9711"/><qTerm  idx="-1"  idxOne="1"  idxTwo="11"  coef="-1.8202"/><qTerm  idx="-1"  idxOne="1"  idxTwo="14"  coef="-.6676"/><qTerm  idx="-1"  idxOne="1"  idxTwo="16"  coef="-1.2149"/><qTerm  idx="-1"  idxOne="1"  idxTwo="17"  coef="-5.95e-2"/><qTerm  idx="-1"  idxOne="2"  idxTwo="3"  coef=".6122"/><qTerm  idx="-1"  idxOne="2"  idxTwo="4"  coef="-.6379"/><qTerm  idx="-1"  idxOne="2"  idxTwo="6"  coef="-.3628"/><qTerm  idx="-1"  idxOne="2"  idxTwo="7"  coef="-.2293"/><qTerm  idx="-1"  idxOne="2"  idxTwo="10"  coef="-.4804"/><qTerm  idx="-1"  idxOne="2"  idxTwo="11"  coef="1.6438"/><qTerm  idx="-1"  idxOne="2"  idxTwo="12"  coef="-.2765"/><qTerm  idx="-1"  idxOne="2"  idxTwo="14"  coef="-.5934"/><qTerm  idx="-1"  idxOne="2"  idxTwo="16"  coef="-.2569"/><qTerm  idx="-1"  idxOne="2"  idxTwo="17"  coef=".7138"/><qTerm  idx="-1"  idxOne="2"  idxTwo="18"  coef="1.0884"/><qTerm  idx="-1"  idxOne="3"  idxTwo="4"  coef="-.2866"/><qTerm  idx="-1"  idxOne="3"  idxTwo="7"  coef=".3636"/><qTerm  idx="-1"  idxOne="3"  idxTwo="10"  coef="-1.8953"/><qTerm  idx="-1"  idxOne="3"  idxTwo="11"  coef="-.3757"/><qTerm  idx="-1"  idxOne="3"  idxTwo="12"  coef=".4943"/><qTerm  idx="-1"  idxOne="3"  idxTwo="13"  coef="-1.3846"/><qTerm  idx="-1"  idxOne="3"  idxTwo="14"  coef="1.9858"/><qTerm  idx="-1"  idxOne="3"  idxTwo="16"  coef="1.5597"/><qTerm  idx="-1"  idxOne="4"  idxTwo="5"  coef=".7491"/><qTerm  idx="-1"  idxOne="4"  idxTwo="8"  coef="1.0889"/><qTerm  idx="-1"  idxOne="4"  idxTwo="9"  coef=".5827"/><qTerm  idx="-1"  idxOne="4"  idxTwo="10"  coef=".7138"/><qTerm  idx="-1"  idxOne="4"  idxTwo="11"  coef="-.4771"/><qTerm  idx="-1"  idxOne="4"  idxTwo="12"  coef="1.6647"/><qTerm  idx="-1"  idxOne="4"  idxTwo="14"  coef="-9.24e-2"/><qTerm  idx="-1"  idxOne="4"  idxTwo="15"  coef="-1.5454"/><qTerm  idx="-1"  idxOne="4"  idxTwo="17"  coef="-8.1e-2"/><qTerm  idx="-1"  idxOne="4"  idxTwo="18"  coef="1.0846"/><qTerm  idx="-1"  idxOne="4"  idxTwo="19"  coef="-1.4936"/><qTerm  idx="-1"  idxOne="5"  idxTwo="5"  coef=".6123"/><qTerm  idx="-1"  idxOne="5"  idxTwo="9"  coef="1.0192"/><qTerm  idx="-1"  idxOne="5"  idxTwo="14"  coef="-.858"/><qTerm  idx="-1"  idxOne="5"  idxTwo="19"  coef="-.1025"/><qTerm  idx="-1"  idxOne="6"  idxTwo="6"  coef="-1.7041"/><qTerm  idx="-1"  idxOne="6"  idxTwo="7"  coef=".1715"/><qTerm  idx="-1"  idxOne="6"  idxTwo="8"  coef="1.7997"/><qTerm  idx="-1"  idxOne="6"  idxTwo="9"  coef="-1.3846"/><qTerm  idx="-1"  idxOne="6"  idxTwo="10"  coef="1.7096"/><qTerm  idx="-1"  idxOne="6"  idxTwo="13"  coef="1.44e-2"/><qTerm  idx="-1"  idxOne="6"  idxTwo="14"  coef=".2788"/><qTerm  idx="-1"  idxOne="6"  idxTwo="15"  coef="-.7224"/><qTerm  idx="-1"  idxOne="6"  idxTwo="17"  coef=".8893"/><qTerm  idx="-1"  idxOne="7"  idxTwo="10"  coef="1.6033"/><qTerm  idx="-1"  idxOne="7"  idxTwo="11"  coef="-1.2395"/><qTerm  idx="-1"  idxOne="7"  idxTwo="14"  coef="-1.866"/><qTerm  idx="-1"  idxOne="7"  idxTwo="15"  coef="-.3301"/><qTerm  idx="-1"  idxOne="7"  idxTwo="16"  coef="-.9546"/><qTerm  idx="-1"  idxOne="7"  idxTwo="18"  coef="-1.8189"/><qTerm  idx="-1"  idxOne="8"  idxTwo="9"  coef=".3375"/><qTerm  idx="-1"  idxOne="8"  idxTwo="11"  coef=".7398"/><qTerm  idx="-1"  idxOne="8"  idxTwo="12"  coef="1.209"/><qTerm  idx="-1"  idxOne="8"  idxTwo="14"  coef="-1.0769"/><qTerm  idx="-1"  idxOne="8"  idxTwo="16"  coef="-1.9038"/><qTerm  idx="-1"  idxOne="8"  idxTwo="18"  coef="1.1892"/><qTerm  idx="-1"  idxOne="9"  idxTwo="9"  coef=".9628"/><qTerm  idx="-1"  idxOne="9"  idxTwo="10"  coef="-.4299"/><qTerm  idx="-1"  idxOne="9"  idxTwo="11"  coef="-1.8765"/><qTerm  idx="-1"  idxOne="9"  idxTwo="13"  coef="-.868"/><qTerm  idx="-1"  idxOne="9"  idxTwo="14"  coef=".6257"/><qTerm  idx="-1"  idxOne="9"  idxTwo="17"  coef="1.6098"/><qTerm  idx="-1"  idxOne="9"  idxTwo="18"  coef="-1.9951"/><qTerm  idx="-1"  idxOne="9"  idxTwo="19"  coef="-1.742"/><qTerm  idx="-1"  idxOne="10"  idxTwo="11"  coef=".7658"/><qTerm  idx="-1"  idxOne="10"  idxTwo="12"  coef=".7949"/><qTerm  idx="-1"  idxOne="10"  idxTwo="13"  coef="1.8588"/><qTerm  idx="-1"  idxOne="10"  idxTwo="14"  coef=".2947"/><qTerm  idx="-1"  idxOne="10"  idxTwo="15"  coef="-.6727"/><qTerm  idx="-1"  idxOne="10"  idxTwo="17"  coef=".9415"/><qTerm  idx="-1"  idxOne="11"  idxTwo="11"  coef=".3402"/><qTerm  idx="-1"  idxOne="11"  idxTwo="13"  coef="1.0237"/><qTerm  idx="-1"  idxOne="11"  idxTwo="15"  coef="-1.0312"/><qTerm  idx="-1"  idxOne="11"  idxTwo="17"  coef="1.9976"/><qTerm  idx="-1"  idxOne="11"  idxTwo="18"  coef="-1.4449"/><qTerm  idx="-1"  idxOne="12"  idxTwo="12"  coef="-1.0033"/><qTerm  idx="-1"  idxOne="12"  idxTwo="14"  coef="1.5016"/><qTerm  idx="-1"  idxOne="12"  idxTwo="18"  coef="1.8835"/><qTerm  idx="-1"  idxOne="13"  idxTwo="14"  coef="-1.615"/><qTerm  idx="-1"  idxOne="13"  idxTwo="16"  coef=".6955"/><qTerm  idx="-1"  idxOne="13"  idxTwo="18"  coef="-1.2375"/><qTerm  idx="-1"  idxOne="14"  idxTwo="14"  coef="-1.6191"/><qTerm  idx="-1"  idxOne="14"  idxTwo="17"  coef="-1.3517"/><qTerm  idx="-1"  idxOne="14"  idxTwo="18"  coef="-1.74"/><qTerm  idx="-1"  idxOne="15"  idxTwo="16"  coef="-.3245"/><qTerm  idx="-1"  idxOne="15"  idxTwo="17"  coef=".8479"/><qTerm  idx="-1"  idxOne="15"  idxTwo="19"  coef="-.2771"/><qTerm  idx="-1"  idxOne="16"  idxTwo="17"  coef="1.0166"/><qTerm  idx="-1"  idxOne="18"  idxTwo="19"  coef="-.1208"/><qTerm  idx="-1"  idxOne="19"  idxTwo="19"  coef="1.718"/></quadraticCoefficients></instanceData></osil>
